graph_generation/data/cp/tcsp/1360771077_Jakarta_ID_180_240_1_task_random.dzn
nodes = 165;
edges = 728;
starts = [1, 2, 3, 3, 3, 4, 4, 4, 5, 6, 6, 6, 7, 7, 7, 8, 8, 8, 8, 9, 10, 10, 10, 11, 12, 13, 13, 13, 14, 14, 15, 15, 16, 16, 16, 16, 17, 17, 17, 18, 18, 18, 19, 19, 19, 19, 20, 20, 20, 21, 21, 21, 22, 22, 22, 23, 24, 24, 24, 25, 25, 25, 26, 26, 27, 28, 28, 28, 29, 29, 29, 30, 31, 32, 33, 33, 33, 34, 34, 34, 34, 35, 35, 36, 36, 37, 37, 38, 38, 39, 40, 41, 41, 41, 42, 42, 42, 43, 43, 43, 44, 44, 45, 45, 45, 46, 46, 47, 47, 48, 48, 48, 49, 49, 49, 50, 50, 50, 51, 51, 51, 52, 52, 52, 53, 54, 54, 54, 55, 55, 55, 56, 56, 56, 57, 57, 57, 58, 58, 58, 59, 59, 59, 60, 60, 60, 61, 61, 61, 62, 62, 62, 63, 63, 63, 64, 64, 64, 64, 65, 65, 65, 66, 66, 66, 67, 67, 67, 68, 68, 68, 69, 70, 70, 70, 71, 71, 71, 72, 72, 72, 73, 74, 75, 76, 76, 76, 77, 78, 78, 78, 79, 79, 79, 79, 80, 81, 82, 82, 82, 83, 83, 83, 84, 85, 85, 85, 85, 86, 86, 86, 87, 88, 88, 88, 89, 89, 89, 90, 90, 90, 91, 92, 92, 92, 93, 93, 93, 94, 94, 94, 95, 96, 97, 97, 97, 98, 98, 99, 99, 100, 101, 101, 102, 102, 102, 103, 103, 103, 104, 104, 104, 105, 105, 105, 106, 107, 107, 107, 108, 108, 109, 110, 111, 111, 112, 113, 114, 115, 115, 115, 116, 116, 116, 117, 118, 118, 118, 119, 119, 119, 120, 121, 122, 122, 123, 123, 124, 124, 125, 125, 126, 127, 128, 129, 129, 129, 130, 130, 131, 131, 131, 132, 133, 133, 133, 134, 134, 135, 136, 137, 138, 138, 138, 139, 139, 140, 140, 141, 142, 142, 142, 143, 143, 144, 145, 145, 146, 147, 147, 147, 148, 148, 149, 149, 149, 149, 150, 150, 151, 152, 153, 153, 154, 154, 155, 155, 156, 156, 156, 157, 157, 158, 158, 159, 159, 160, 161, 161, 162, 163, 164, 165, 165, 2, 116, 82, 102, 107, 76, 107, 142, 14, 13, 15, 78, 10, 125, 156, 10, 34, 83, 129, 155, 7, 8, 16, 150, 9, 6, 82, 97, 5, 12, 6, 17, 10, 34, 79, 123, 15, 79, 165, 58, 96, 148, 21, 118, 131, 149, 21, 24, 149, 19, 20, 22, 21, 24, 25, 41, 20, 22, 143, 22, 26, 143, 25, 27, 26, 59, 68, 75, 43, 44, 92, 31, 114, 118, 55, 56, 65, 8, 16, 78, 97, 39, 118, 1, 162, 38, 128, 30, 158, 35, 48, 23, 45, 147, 50, 58, 131, 29, 52, 90, 29, 99, 41, 147, 150, 86, 157, 110, 154, 40, 108, 109, 85, 89, 92, 42, 51, 61, 50, 54, 164, 43, 89, 90, 94, 51, 55, 70, 33, 54, 85, 33, 57, 92, 56, 60, 99, 18, 42, 149, 28, 60, 106, 57, 59, 67, 50, 62, 70, 61, 63, 71, 62, 64, 72, 63, 65, 68, 72, 33, 64, 66, 65, 67, 74, 60, 66, 80, 28, 64, 131, 165, 54, 61, 71, 62, 70, 72, 63, 64, 71, 145, 66, 28, 4, 77, 139, 76, 6, 34, 79, 16, 17, 78, 141, 67, 83, 3, 13, 83, 8, 81, 82, 115, 49, 55, 86, 93, 46, 85, 88, 88, 86, 87, 90, 49, 52, 91, 43, 52, 88, 89, 29, 49, 56, 85, 94, 104, 53, 93, 103, 97, 18, 13, 34, 95, 117, 119, 57, 121, 101, 100, 145, 3, 107, 142, 94, 104, 105, 93, 103, 105, 103, 104, 120, 59, 3, 4, 102, 48, 124, 48, 47, 112, 140, 111, 115, 136, 84, 113, 116, 2, 115, 119, 98, 19, 32, 35, 98, 116, 138, 105, 106, 37, 124, 16, 125, 108, 122, 7, 14, 151, 138, 109, 8, 142, 156, 132, 137, 19, 42, 68, 146, 134, 148, 149, 133, 135, 134, 46, 161, 119, 127, 140, 76, 160, 111, 138, 79, 4, 102, 129, 24, 25, 155, 73, 130, 9, 41, 45, 161, 18, 133, 19, 20, 58, 133, 11, 45, 44, 153, 101, 152, 126, 158, 144, 153, 7, 129, 163, 47, 158, 154, 159, 37, 69, 139, 36, 147, 36, 156, 51, 17, 123];
ends = [2, 116, 82, 102, 107, 76, 107, 142, 14, 13, 15, 78, 10, 125, 156, 10, 34, 83, 129, 155, 7, 8, 16, 150, 9, 6, 82, 97, 5, 12, 6, 17, 10, 34, 79, 123, 15, 79, 165, 58, 96, 148, 21, 118, 131, 149, 21, 24, 149, 19, 20, 22, 21, 24, 25, 41, 20, 22, 143, 22, 26, 143, 25, 27, 26, 59, 68, 75, 43, 44, 92, 31, 114, 118, 55, 56, 65, 8, 16, 78, 97, 39, 118, 1, 162, 38, 128, 30, 158, 35, 48, 23, 45, 147, 50, 58, 131, 29, 52, 90, 29, 99, 41, 147, 150, 86, 157, 110, 154, 40, 108, 109, 85, 89, 92, 42, 51, 61, 50, 54, 164, 43, 89, 90, 94, 51, 55, 70, 33, 54, 85, 33, 57, 92, 56, 60, 99, 18, 42, 149, 28, 60, 106, 57, 59, 67, 50, 62, 70, 61, 63, 71, 62, 64, 72, 63, 65, 68, 72, 33, 64, 66, 65, 67, 74, 60, 66, 80, 28, 64, 131, 165, 54, 61, 71, 62, 70, 72, 63, 64, 71, 145, 66, 28, 4, 77, 139, 76, 6, 34, 79, 16, 17, 78, 141, 67, 83, 3, 13, 83, 8, 81, 82, 115, 49, 55, 86, 93, 46, 85, 88, 88, 86, 87, 90, 49, 52, 91, 43, 52, 88, 89, 29, 49, 56, 85, 94, 104, 53, 93, 103, 97, 18, 13, 34, 95, 117, 119, 57, 121, 101, 100, 145, 3, 107, 142, 94, 104, 105, 93, 103, 105, 103, 104, 120, 59, 3, 4, 102, 48, 124, 48, 47, 112, 140, 111, 115, 136, 84, 113, 116, 2, 115, 119, 98, 19, 32, 35, 98, 116, 138, 105, 106, 37, 124, 16, 125, 108, 122, 7, 14, 151, 138, 109, 8, 142, 156, 132, 137, 19, 42, 68, 146, 134, 148, 149, 133, 135, 134, 46, 161, 119, 127, 140, 76, 160, 111, 138, 79, 4, 102, 129, 24, 25, 155, 73, 130, 9, 41, 45, 161, 18, 133, 19, 20, 58, 133, 11, 45, 44, 153, 101, 152, 126, 158, 144, 153, 7, 129, 163, 47, 158, 154, 159, 37, 69, 139, 36, 147, 36, 156, 51, 17, 123, 1, 2, 3, 3, 3, 4, 4, 4, 5, 6, 6, 6, 7, 7, 7, 8, 8, 8, 8, 9, 10, 10, 10, 11, 12, 13, 13, 13, 14, 14, 15, 15, 16, 16, 16, 16, 17, 17, 17, 18, 18, 18, 19, 19, 19, 19, 20, 20, 20, 21, 21, 21, 22, 22, 22, 23, 24, 24, 24, 25, 25, 25, 26, 26, 27, 28, 28, 28, 29, 29, 29, 30, 31, 32, 33, 33, 33, 34, 34, 34, 34, 35, 35, 36, 36, 37, 37, 38, 38, 39, 40, 41, 41, 41, 42, 42, 42, 43, 43, 43, 44, 44, 45, 45, 45, 46, 46, 47, 47, 48, 48, 48, 49, 49, 49, 50, 50, 50, 51, 51, 51, 52, 52, 52, 53, 54, 54, 54, 55, 55, 55, 56, 56, 56, 57, 57, 57, 58, 58, 58, 59, 59, 59, 60, 60, 60, 61, 61, 61, 62, 62, 62, 63, 63, 63, 64, 64, 64, 64, 65, 65, 65, 66, 66, 66, 67, 67, 67, 68, 68, 68, 69, 70, 70, 70, 71, 71, 71, 72, 72, 72, 73, 74, 75, 76, 76, 76, 77, 78, 78, 78, 79, 79, 79, 79, 80, 81, 82, 82, 82, 83, 83, 83, 84, 85, 85, 85, 85, 86, 86, 86, 87, 88, 88, 88, 89, 89, 89, 90, 90, 90, 91, 92, 92, 92, 93, 93, 93, 94, 94, 94, 95, 96, 97, 97, 97, 98, 98, 99, 99, 100, 101, 101, 102, 102, 102, 103, 103, 103, 104, 104, 104, 105, 105, 105, 106, 107, 107, 107, 108, 108, 109, 110, 111, 111, 112, 113, 114, 115, 115, 115, 116, 116, 116, 117, 118, 118, 118, 119, 119, 119, 120, 121, 122, 122, 123, 123, 124, 124, 125, 125, 126, 127, 128, 129, 129, 129, 130, 130, 131, 131, 131, 132, 133, 133, 133, 134, 134, 135, 136, 137, 138, 138, 138, 139, 139, 140, 140, 141, 142, 142, 142, 143, 143, 144, 145, 145, 146, 147, 147, 147, 148, 148, 149, 149, 149, 149, 150, 150, 151, 152, 153, 153, 154, 154, 155, 155, 156, 156, 156, 157, 157, 158, 158, 159, 159, 160, 161, 161, 162, 163, 164, 165, 165];
weights = [14, 131, 5, 17, 45, 47, 60, 77, 206, 158, 20, 27, 58, 66, 21, 68, 83, 41, 87, 58, 58, 68, 96, 19, 11, 158, 90, 51, 206, 152, 20, 56, 96, 57, 61, 116, 56, 49, 142, 146, 44, 45, 35, 40, 47, 145, 145, 38, 35, 35, 145, 34, 34, 145, 38, 68, 38, 145, 33, 38, 35, 144, 35, 36, 36, 24, 135, 8, 57, 45, 111, 16, 140, 109, 73, 81, 132, 83, 57, 62, 34, 36, 36, 658, 8, 89, 72, 708, 18, 36, 20, 68, 167, 112, 52, 72, 72, 57, 117, 134, 45, 115, 167, 69, 41, 57, 19, 8, 61, 20, 182, 86, 36, 35, 123, 52, 133, 39, 133, 36, 108, 117, 36, 5, 37, 36, 69, 51, 73, 69, 51, 81, 37, 48, 37, 133, 55, 146, 72, 44, 24, 51, 69, 133, 51, 54, 39, 29, 75, 29, 37, 77, 37, 35, 79, 35, 38, 48, 111, 132, 38, 31, 31, 33, 77, 54, 33, 67, 135, 48, 70, 111, 51, 75, 31, 77, 31, 37, 79, 111, 37, 14, 77, 8, 47, 20, 19, 20, 27, 62, 63, 61, 49, 63, 75, 67, 35, 5, 90, 22, 41, 35, 22, 68, 36, 51, 119, 33, 57, 119, 24, 132, 24, 132, 34, 35, 36, 115, 134, 5, 34, 115, 111, 123, 48, 33, 160, 39, 37, 160, 38, 34, 44, 51, 34, 34, 104, 44, 55, 138, 22, 22, 45, 17, 57, 66, 38, 160, 196, 39, 160, 28, 196, 28, 39, 69, 45, 60, 57, 182, 77, 86, 8, 11, 71, 11, 122, 14, 68, 122, 63, 131, 63, 84, 104, 40, 109, 36, 44, 84, 79, 39, 41, 342, 79, 116, 156, 77, 79, 66, 93, 30, 102, 6, 87, 61, 54, 17, 9, 47, 72, 70, 218, 35, 107, 39, 35, 36, 36, 290, 219, 79, 102, 56, 19, 8, 71, 56, 75, 77, 66, 61, 33, 144, 9, 14, 64, 14, 112, 69, 267, 45, 107, 145, 35, 44, 39, 19, 41, 65, 20, 38, 20, 4, 41, 9, 9, 21, 54, 47, 189, 244, 41, 90, 17, 229, 8, 229, 267, 8, 47, 108, 142, 95, 14, 131, 5, 17, 45, 47, 60, 77, 206, 158, 20, 27, 58, 66, 21, 68, 83, 41, 87, 58, 58, 68, 96, 19, 11, 158, 90, 51, 206, 152, 20, 56, 96, 57, 61, 116, 56, 49, 142, 146, 44, 45, 35, 40, 47, 145, 145, 38, 35, 35, 145, 34, 34, 145, 38, 68, 38, 145, 33, 38, 35, 144, 35, 36, 36, 24, 135, 8, 57, 45, 111, 16, 140, 109, 73, 81, 132, 83, 57, 62, 34, 36, 36, 658, 8, 89, 72, 708, 18, 36, 20, 68, 167, 112, 52, 72, 72, 57, 117, 134, 45, 115, 167, 69, 41, 57, 19, 8, 61, 20, 182, 86, 36, 35, 123, 52, 133, 39, 133, 36, 108, 117, 36, 5, 37, 36, 69, 51, 73, 69, 51, 81, 37, 48, 37, 133, 55, 146, 72, 44, 24, 51, 69, 133, 51, 54, 39, 29, 75, 29, 37, 77, 37, 35, 79, 35, 38, 48, 111, 132, 38, 31, 31, 33, 77, 54, 33, 67, 135, 48, 70, 111, 51, 75, 31, 77, 31, 37, 79, 111, 37, 14, 77, 8, 47, 20, 19, 20, 27, 62, 63, 61, 49, 63, 75, 67, 35, 5, 90, 22, 41, 35, 22, 68, 36, 51, 119, 33, 57, 119, 24, 132, 24, 132, 34, 35, 36, 115, 134, 5, 34, 115, 111, 123, 48, 33, 160, 39, 37, 160, 38, 34, 44, 51, 34, 34, 104, 44, 55, 138, 22, 22, 45, 17, 57, 66, 38, 160, 196, 39, 160, 28, 196, 28, 39, 69, 45, 60, 57, 182, 77, 86, 8, 11, 71, 11, 122, 14, 68, 122, 63, 131, 63, 84, 104, 40, 109, 36, 44, 84, 79, 39, 41, 342, 79, 116, 156, 77, 79, 66, 93, 30, 102, 6, 87, 61, 54, 17, 9, 47, 72, 70, 218, 35, 107, 39, 35, 36, 36, 290, 219, 79, 102, 56, 19, 8, 71, 56, 75, 77, 66, 61, 33, 144, 9, 14, 64, 14, 112, 69, 267, 45, 107, 145, 35, 44, 39, 19, 41, 65, 20, 38, 20, 4, 41, 9, 9, 21, 54, 47, 189, 244, 41, 90, 17, 229, 8, 229, 267, 8, 47, 108, 142, 95];
start = 66;
end= 2;
tasks = 17;
task = array2d(1..tasks, 1..nodes, [0, 0, 0, 0, 0, 0, 1, 0, 0, 0, 0, 0, 0, 0, 0, 0, 0, 0, 0, 0, 0, 0, 0, 0, 0, 0, 0, 0, 0, 0, 0, 0, 0, 0, 0, 0, 0, 0, 0, 0, 0, 0, 0, 0, 0, 0, 0, 0, 0, 0, 0, 0, 0, 0, 0, 0, 0, 0, 0, 0, 0, 0, 0, 0, 0, 0, 0, 0, 0, 0, 0, 0, 0, 0, 0, 0, 0, 0, 0, 0, 0, 0, 0, 0, 0, 0, 0, 0, 0, 0, 0, 0, 0, 0, 0, 0, 0, 0, 0, 0, 0, 0, 0, 0, 0, 0, 0, 0, 0, 0, 0, 0, 0, 0, 0, 0, 0, 0, 0, 0, 0, 0, 0, 0, 0, 0, 0, 0, 0, 0, 0, 0, 0, 0, 0, 0, 0, 0, 0, 0, 0, 0, 0, 0, 0, 0, 0, 0, 0, 0, 0, 0, 0, 0, 0, 0, 0, 0, 0, 0, 0, 0, 0, 0, 0, 0, 0, 0, 0, 0, 0, 0, 0, 0, 0, 0, 0, 0, 1, 0, 0, 0, 0, 0, 0, 0, 0, 0, 0, 0, 0, 0, 0, 0, 0, 0, 0, 0, 0, 0, 0, 0, 0, 0, 0, 0, 0, 0, 0, 0, 0, 0, 0, 0, 0, 0, 0, 0, 0, 0, 0, 0, 0, 0, 0, 0, 0, 0, 0, 0, 0, 0, 0, 0, 0, 0, 0, 0, 0, 0, 0, 0, 0, 0, 0, 0, 0, 0, 0, 0, 0, 0, 0, 0, 0, 0, 0, 0, 0, 0, 0, 0, 0, 0, 0, 0, 0, 0, 0, 0, 0, 0, 0, 0, 0, 0, 0, 0, 0, 0, 0, 0, 0, 0, 0, 0, 0, 0, 0, 0, 0, 0, 0, 0, 0, 0, 0, 0, 0, 0, 0, 0, 0, 0, 0, 0, 0, 0, 0, 0, 0, 0, 0, 0, 0, 0, 0, 0, 0, 0, 0, 0, 0, 0, 0, 0, 0, 0, 0, 0, 0, 0, 0, 0, 0, 0, 0, 0, 0, 0, 0, 0, 0, 0, 0, 0, 0, 0, 0, 0, 0, 0, 0, 1, 0, 0, 0, 0, 0, 0, 0, 0, 0, 0, 0, 0, 0, 0, 0, 0, 0, 0, 0, 0, 0, 0, 0, 0, 0, 0, 0, 0, 0, 0, 0, 0, 0, 0, 0, 0, 0, 0, 0, 0, 0, 0, 0, 0, 0, 0, 0, 0, 0, 0, 0, 0, 0, 0, 0, 0, 0, 0, 0, 0, 0, 0, 0, 0, 0, 0, 0, 0, 0, 0, 0, 0, 0, 0, 0, 0, 0, 0, 0, 0, 0, 0, 0, 0, 0, 0, 0, 0, 0, 0, 0, 0, 0, 0, 0, 0, 0, 0, 0, 0, 0, 0, 0, 0, 0, 0, 0, 0, 0, 0, 0, 0, 0, 0, 0, 0, 0, 0, 0, 0, 0, 0, 0, 0, 0, 0, 0, 0, 0, 0, 0, 0, 0, 0, 0, 0, 0, 0, 0, 0, 0, 0, 0, 0, 0, 0, 0, 0, 0, 0, 0, 0, 0, 0, 0, 0, 0, 0, 0, 0, 0, 0, 0, 0, 0, 0, 0, 1, 0, 0, 0, 0, 0, 0, 0, 0, 0, 0, 0, 0, 0, 0, 0, 0, 0, 0, 0, 0, 0, 0, 0, 0, 0, 0, 0, 0, 0, 0, 0, 0, 0, 0, 0, 0, 0, 0, 0, 0, 0, 0, 0, 0, 0, 0, 0, 0, 0, 0, 0, 0, 0, 0, 0, 0, 0, 0, 0, 0, 0, 0, 0, 0, 0, 0, 0, 0, 0, 0, 0, 0, 0, 0, 0, 0, 0, 0, 0, 0, 0, 0, 0, 0, 0, 0, 0, 0, 0, 0, 0, 0, 0, 0, 0, 0, 0, 0, 0, 0, 0, 0, 0, 0, 0, 0, 0, 0, 0, 0, 0, 0, 0, 0, 0, 0, 0, 0, 0, 0, 0, 0, 0, 0, 0, 0, 0, 0, 0, 0, 0, 0, 0, 0, 0, 0, 0, 0, 0, 0, 0, 0, 0, 0, 0, 0, 0, 0, 0, 0, 0, 0, 0, 0, 0, 0, 0, 0, 0, 0, 0, 0, 0, 0, 0, 0, 0, 0, 0, 0, 0, 0, 0, 0, 0, 0, 0, 0, 0, 0, 0, 0, 0, 0, 1, 0, 0, 0, 0, 0, 0, 0, 0, 0, 0, 0, 0, 0, 0, 0, 0, 0, 0, 0, 0, 0, 0, 0, 0, 0, 0, 0, 0, 0, 0, 0, 0, 0, 0, 0, 0, 0, 0, 0, 0, 0, 0, 0, 0, 0, 0, 0, 0, 0, 0, 0, 0, 0, 0, 0, 0, 0, 0, 0, 0, 0, 0, 0, 0, 0, 0, 0, 0, 0, 0, 0, 0, 0, 0, 0, 0, 0, 0, 0, 0, 0, 0, 0, 0, 0, 0, 0, 0, 0, 0, 0, 0, 0, 0, 0, 0, 0, 0, 0, 0, 0, 0, 0, 0, 0, 0, 0, 0, 0, 0, 0, 0, 0, 0, 0, 0, 0, 0, 0, 0, 0, 0, 0, 0, 0, 0, 0, 0, 0, 0, 0, 0, 0, 0, 0, 0, 0, 0, 0, 0, 0, 0, 0, 0, 0, 0, 0, 0, 0, 0, 0, 0, 0, 0, 0, 0, 0, 0, 0, 0, 0, 0, 0, 0, 0, 0, 0, 0, 0, 0, 0, 1, 0, 0, 0, 0, 0, 0, 0, 0, 0, 0, 0, 0, 0, 0, 0, 0, 0, 0, 0, 0, 0, 0, 0, 0, 0, 0, 0, 0, 0, 0, 0, 0, 0, 0, 0, 0, 0, 0, 0, 0, 0, 0, 0, 0, 0, 0, 0, 0, 0, 0, 0, 0, 0, 0, 0, 0, 0, 0, 0, 0, 0, 0, 0, 0, 0, 0, 0, 0, 0, 0, 0, 0, 0, 0, 0, 0, 0, 0, 0, 0, 0, 0, 0, 0, 0, 0, 0, 0, 0, 0, 0, 0, 0, 0, 0, 0, 0, 0, 0, 0, 0, 0, 0, 0, 0, 0, 0, 0, 0, 0, 0, 0, 0, 0, 0, 0, 0, 0, 0, 0, 0, 0, 0, 0, 0, 0, 0, 0, 0, 0, 0, 0, 0, 0, 0, 0, 0, 0, 0, 0, 0, 0, 0, 0, 0, 0, 0, 0, 0, 0, 0, 0, 0, 0, 0, 0, 0, 0, 0, 0, 0, 0, 0, 0, 0, 0, 0, 0, 0, 0, 0, 0, 0, 0, 0, 0, 0, 0, 0, 0, 0, 0, 0, 0, 0, 0, 0, 1, 0, 0, 0, 0, 0, 0, 0, 0, 0, 0, 0, 0, 0, 0, 0, 0, 0, 0, 0, 0, 0, 0, 0, 0, 0, 0, 0, 0, 0, 0, 0, 0, 0, 0, 0, 0, 0, 0, 0, 0, 0, 0, 0, 0, 0, 0, 0, 0, 0, 0, 0, 0, 0, 0, 0, 0, 0, 0, 0, 0, 0, 0, 0, 0, 0, 0, 0, 0, 0, 0, 0, 0, 0, 0, 0, 0, 0, 0, 0, 0, 0, 0, 0, 0, 0, 0, 0, 0, 0, 0, 0, 0, 0, 0, 0, 0, 0, 0, 0, 0, 0, 0, 0, 0, 0, 0, 0, 0, 0, 0, 0, 0, 0, 0, 0, 0, 0, 0, 0, 0, 0, 0, 0, 0, 0, 0, 0, 0, 0, 0, 0, 0, 0, 0, 0, 0, 0, 0, 0, 0, 0, 0, 0, 0, 0, 0, 0, 0, 0, 0, 0, 0, 0, 0, 0, 0, 0, 0, 0, 0, 0, 0, 0, 0, 0, 1, 0, 0, 0, 0, 0, 0, 0, 0, 0, 0, 0, 0, 0, 0, 0, 0, 0, 0, 0, 0, 0, 0, 0, 0, 0, 0, 0, 0, 0, 0, 0, 0, 0, 0, 0, 0, 0, 0, 0, 0, 0, 0, 0, 0, 0, 0, 0, 0, 0, 0, 0, 0, 0, 0, 0, 0, 0, 0, 0, 0, 0, 0, 0, 0, 0, 0, 0, 0, 0, 0, 0, 0, 0, 0, 0, 0, 0, 0, 0, 0, 0, 0, 0, 0, 0, 0, 0, 0, 0, 0, 0, 0, 0, 0, 0, 0, 0, 0, 0, 0, 0, 0, 0, 0, 0, 0, 0, 0, 0, 0, 0, 0, 0, 0, 0, 0, 0, 0, 0, 0, 0, 0, 0, 0, 0, 0, 0, 0, 0, 0, 0, 0, 0, 0, 0, 0, 0, 0, 0, 0, 0, 0, 0, 0, 0, 0, 0, 0, 0, 0, 0, 0, 0, 0, 0, 0, 0, 0, 0, 0, 0, 0, 0, 0, 0, 0, 0, 0, 0, 0, 0, 0, 0, 0, 0, 1, 0, 0, 0, 0, 0, 0, 0, 0, 0, 0, 0, 0, 0, 0, 0, 0, 0, 0, 0, 0, 0, 0, 0, 0, 0, 0, 0, 0, 0, 0, 0, 0, 0, 0, 0, 0, 0, 0, 0, 0, 0, 0, 0, 0, 0, 0, 0, 0, 0, 0, 0, 0, 0, 0, 0, 0, 0, 0, 0, 0, 0, 0, 0, 0, 0, 0, 0, 0, 0, 0, 0, 0, 0, 0, 0, 0, 0, 0, 0, 0, 0, 0, 0, 0, 0, 0, 0, 0, 0, 0, 0, 0, 0, 0, 0, 0, 0, 0, 0, 0, 0, 0, 0, 0, 0, 0, 0, 0, 0, 0, 0, 0, 0, 0, 0, 0, 0, 0, 0, 0, 0, 0, 0, 0, 0, 0, 0, 0, 0, 0, 0, 0, 0, 0, 0, 0, 0, 0, 0, 0, 0, 0, 0, 0, 0, 0, 0, 0, 0, 0, 0, 0, 0, 0, 0, 0, 0, 0, 0, 0, 0, 0, 0, 0, 0, 0, 0, 1, 0, 0, 0, 0, 0, 0, 0, 0, 0, 0, 0, 0, 0, 0, 0, 0, 0, 0, 0, 0, 0, 0, 0, 0, 0, 0, 0, 0, 0, 0, 0, 0, 0, 0, 0, 0, 0, 0, 0, 0, 0, 0, 0, 0, 0, 0, 0, 0, 0, 0, 0, 0, 0, 0, 0, 0, 0, 0, 0, 0, 0, 0, 0, 0, 0, 0, 0, 0, 0, 0, 0, 0, 0, 0, 0, 0, 0, 0, 0, 0, 0, 0, 0, 0, 0, 0, 0, 0, 0, 0, 0, 0, 0, 0, 0, 0, 0, 0, 0, 0, 0, 0, 0, 0, 0, 0, 0, 0, 0, 0, 0, 0, 0, 0, 0, 0, 0, 0, 0, 0, 0, 0, 0, 0, 0, 0, 0, 0, 0, 0, 0, 0, 0, 0, 0, 0, 0, 0, 0, 0, 0, 0, 0, 0, 0, 0, 0, 0, 0, 0, 0, 0, 0, 0, 0, 0, 0, 0, 0, 0, 0, 0, 0, 0, 0, 0, 0, 0, 0, 1, 0, 0, 0, 0, 0, 0, 0, 0, 0, 0, 0, 0, 0, 0, 0, 0, 0, 0, 0, 0, 0, 0, 0, 0, 0, 0, 0, 0, 0, 0, 0, 0, 0, 0, 0, 0, 0, 0, 0, 0, 0, 0, 0, 0, 0, 0, 0, 0, 0, 0, 0, 0, 0, 0, 0, 0, 0, 0, 0, 0, 0, 0, 0, 0, 0, 0, 0, 0, 0, 0, 0, 0, 0, 0, 0, 0, 0, 0, 0, 0, 0, 0, 0, 0, 0, 0, 0, 0, 0, 0, 0, 0, 0, 0, 0, 0, 0, 0, 0, 0, 0, 0, 0, 0, 0, 0, 0, 0, 0, 0, 0, 0, 0, 0, 0, 0, 0, 0, 0, 0, 0, 0, 0, 0, 0, 0, 0, 0, 0, 0, 0, 0, 0, 0, 0, 0, 0, 0, 0, 0, 0, 0, 0, 0, 0, 0, 0, 0, 0, 0, 0, 0, 0, 0, 0, 0, 0, 0, 0, 0, 0, 0, 0, 0, 0, 0, 0, 0, 0, 0, 1, 0, 0, 0, 0, 0, 0, 0, 0, 0, 0, 0, 0, 0, 0, 0, 0, 0, 0, 0, 0, 0, 0, 0, 0, 0, 0, 0, 0, 0, 0, 0, 0, 0, 0, 0, 0, 0, 0, 0, 0, 0, 0, 0, 0, 0, 0, 0, 0, 0, 0, 0, 0, 0, 0, 0, 0, 0, 0, 0, 0, 0, 0, 0, 0, 0, 0, 0, 0, 0, 0, 0, 0, 0, 0, 0, 0, 0, 0, 0, 0, 0, 0, 0, 0, 0, 0, 0, 0, 0, 0, 0, 0, 0, 0, 0, 0, 0, 0, 0, 0, 0, 0, 0, 0, 0, 0, 0, 0, 0, 0, 0, 0, 0, 0, 0, 0, 0, 0, 0, 0, 0, 0, 0, 0, 0, 0, 0, 0, 0, 0, 0, 0, 0, 0, 0, 0, 0, 0, 0, 0, 0, 0, 0, 0, 0, 0, 0, 0, 0, 0, 0, 0, 0, 0, 0, 0, 0, 0, 0, 0, 0, 0, 0, 0, 0, 0, 0, 0, 0, 0, 0, 0, 1, 0, 0, 0, 0, 0, 0, 0, 0, 0, 0, 0, 0, 0, 0, 0, 0, 0, 0, 0, 0, 0, 0, 0, 0, 0, 0, 0, 0, 0, 0, 0, 0, 0, 0, 0, 0, 0, 0, 0, 0, 0, 0, 0, 0, 0, 0, 0, 0, 0, 0, 0, 0, 0, 0, 0, 0, 0, 0, 0, 0, 0, 0, 0, 0, 0, 0, 0, 0, 0, 0, 0, 0, 0, 0, 0, 0, 0, 0, 0, 0, 0, 0, 0, 0, 0, 0, 0, 0, 0, 0, 0, 0, 0, 0, 0, 0, 0, 0, 0, 0, 0, 0, 0, 0, 0, 0, 0, 0, 0, 0, 0, 0, 0, 0, 0, 0, 0, 0, 0, 0, 0, 0, 0, 0, 0, 0, 0, 0, 0, 0, 0, 0, 0, 0, 0, 0, 0, 0, 0, 0, 0, 0, 0, 0, 0, 0, 0, 0, 0, 0, 0, 0, 0, 0, 0, 0, 0, 0, 0, 0, 0, 0, 0, 0, 0, 0, 0, 0, 0, 0, 0, 0, 0, 1, 0, 0, 0, 0, 0, 0, 0, 0, 0, 0, 0, 0, 0, 0, 0, 0, 0, 0, 0, 0, 0, 0, 0, 0, 0, 0, 0, 0, 0, 0, 0, 0, 0, 0, 0, 0, 0, 0, 0, 0, 0, 0, 0, 0, 0, 0, 0, 0, 0, 0, 0, 0, 0, 0, 0, 0, 0, 0, 0, 0, 0, 0, 0, 0, 0, 0, 0, 0, 0, 0, 0, 0, 0, 0, 0, 0, 0, 0, 0, 0, 0, 0, 0, 0, 0, 0, 0, 0, 0, 0, 0, 0, 0, 0, 0, 0, 0, 0, 0, 0, 0, 0, 0, 0, 0, 0, 0, 0, 0, 0, 0, 0, 0, 0, 0, 0, 0, 0, 0, 0, 0, 0, 0, 0, 0, 0, 0, 0, 0, 0, 0, 0, 0, 0, 0, 0, 0, 0, 0, 0, 0, 0, 0, 0, 0, 0, 0, 0, 0, 0, 0, 0, 0, 0, 0, 0, 0, 0, 0, 0, 0, 0, 0, 0, 0, 0, 0, 1, 0, 0, 0, 0, 0, 0, 0, 0, 0, 0, 0, 0, 0, 0, 0, 0, 0, 0, 0, 0, 0, 0, 0, 0, 0, 0, 0, 0, 0, 0, 0, 0, 0, 0, 0, 0, 0, 0, 0, 0, 0, 0, 0, 0, 0, 0, 0, 0, 0, 0, 0, 0, 0, 0, 0, 0, 0, 0, 0, 0, 0, 0, 0, 0, 0, 0, 0, 0, 0, 0, 0, 0, 0, 0, 0, 0, 0, 0, 0, 0, 0, 0, 0, 0, 0, 0, 0, 0, 0, 0, 0, 0, 0, 0, 0, 0, 0, 0, 0, 0, 0, 0, 0, 0, 0, 0, 0, 0, 0, 0, 0, 0, 0, 0, 0, 0, 0, 0, 0, 0, 0, 0, 0, 0, 0, 0, 0, 0, 0, 0, 0, 0, 0, 0, 0, 0, 0, 0, 0, 0, 0, 0, 0, 0, 0, 0, 0, 0, 0, 0, 0, 0, 0, 0, 0, 0, 0, 0, 0, 0, 0, 0, 0, 0, 0, 0, 0, 0, 0, 0, 0, 0, 0, 0, 1, 0, 0, 0, 0, 0, 0, 0, 0, 0, 0, 0, 0, 0, 0, 0, 0, 0, 0, 0, 0, 0, 0, 0, 0, 0, 0, 0, 0, 0, 0, 0, 0, 0, 0, 0, 0, 0, 0, 0, 0, 0, 0, 0, 0, 0, 0, 0, 0, 0, 0, 0, 0, 0, 0, 0, 0, 0, 0, 0, 0, 0, 0, 0, 0, 0, 0, 0, 0, 0, 0, 0, 0, 0, 0, 0, 0, 0, 0, 0, 0, 0, 0, 0, 0, 0, 0, 0, 0, 0, 0, 0, 0, 0, 0, 0, 0, 0, 0, 0, 0, 0, 0, 0, 0, 0, 0, 0, 0, 0, 0, 0, 0, 0, 0, 0, 0, 0, 0, 0, 0, 0, 0, 0, 0, 0, 0, 0, 0, 0, 0, 0, 0, 0, 0, 0, 0, 0, 0, 0, 0, 0, 0, 0, 0, 0, 0, 0, 0, 0, 0, 0, 0, 0, 0, 0, 0, 0, 0, 0, 0, 0, 0, 0, 0, 0, 0, 0, 0, 0, 0, 0, 0, 0, 0, 0, 0, 0, 0, 0, 0, 0, 0, 0, 0, 0, 1, 0, 0, 0, 0, 0, 0, 0, 0, 0, 0, 0]);
