graph_generation/data/sat/tcsp/1360771077_Jakarta_ID_180_240_1_task_random.txt
165 364 66 2 17
1 2 14
2 116 131
3 82 5
3 102 17
3 107 45
4 76 47
4 107 60
4 142 77
5 14 206
6 13 158
6 15 20
6 78 27
7 10 58
7 125 66
7 156 21
8 10 68
8 34 83
8 83 41
8 129 87
9 155 58
10 7 58
10 8 68
10 16 96
11 150 19
12 9 11
13 6 158
13 82 90
13 97 51
14 5 206
14 12 152
15 6 20
15 17 56
16 10 96
16 34 57
16 79 61
16 123 116
17 15 56
17 79 49
17 165 142
18 58 146
18 96 44
18 148 45
19 21 35
19 118 40
19 131 47
19 149 145
20 21 145
20 24 38
20 149 35
21 19 35
21 20 145
21 22 34
22 21 34
22 24 145
22 25 38
23 41 68
24 20 38
24 22 145
24 143 33
25 22 38
25 26 35
25 143 144
26 25 35
26 27 36
27 26 36
28 59 24
28 68 135
28 75 8
29 43 57
29 44 45
29 92 111
30 31 16
31 114 140
32 118 109
33 55 73
33 56 81
33 65 132
34 8 83
34 16 57
34 78 62
34 97 34
35 39 36
35 118 36
36 1 658
36 162 8
37 38 89
37 128 72
38 30 708
38 158 18
39 35 36
40 48 20
41 23 68
41 45 167
41 147 112
42 50 52
42 58 72
42 131 72
43 29 57
43 52 117
43 90 134
44 29 45
44 99 115
45 41 167
45 147 69
45 150 41
46 86 57
46 157 19
47 110 8
47 154 61
48 40 20
48 108 182
48 109 86
49 85 36
49 89 35
49 92 123
50 42 52
50 51 133
50 61 39
51 50 133
51 54 36
51 164 108
52 43 117
52 89 36
52 90 5
53 94 37
54 51 36
54 55 69
54 70 51
55 33 73
55 54 69
55 85 51
56 33 81
56 57 37
56 92 48
57 56 37
57 60 133
57 99 55
58 18 146
58 42 72
58 149 44
59 28 24
59 60 51
59 106 69
60 57 133
60 59 51
60 67 54
61 50 39
61 62 29
61 70 75
62 61 29
62 63 37
62 71 77
63 62 37
63 64 35
63 72 79
64 63 35
64 65 38
64 68 48
64 72 111
65 33 132
65 64 38
65 66 31
66 65 31
66 67 33
66 74 77
67 60 54
67 66 33
67 80 67
68 28 135
68 64 48
68 131 70
69 165 111
70 54 51
70 61 75
70 71 31
71 62 77
71 70 31
71 72 37
72 63 79
72 64 111
72 71 37
73 145 14
74 66 77
75 28 8
76 4 47
76 77 20
76 139 19
77 76 20
78 6 27
78 34 62
78 79 63
79 16 61
79 17 49
79 78 63
79 141 75
80 67 67
81 83 35
82 3 5
82 13 90
82 83 22
83 8 41
83 81 35
83 82 22
84 115 68
85 49 36
85 55 51
85 86 119
85 93 33
86 46 57
86 85 119
86 88 24
87 88 132
88 86 24
88 87 132
88 90 34
89 49 35
89 52 36
89 91 115
90 43 134
90 52 5
90 88 34
91 89 115
92 29 111
92 49 123
92 56 48
93 85 33
93 94 160
93 104 39
94 53 37
94 93 160
94 103 38
95 97 34
96 18 44
97 13 51
97 34 34
97 95 34
98 117 104
98 119 44
99 57 55
99 121 138
100 101 22
101 100 22
101 145 45
102 3 17
102 107 57
102 142 66
103 94 38
103 104 160
103 105 196
104 93 39
104 103 160
104 105 28
105 103 196
105 104 28
105 120 39
106 59 69
107 3 45
107 4 60
107 102 57
108 48 182
108 124 77
109 48 86
110 47 8
111 112 11
111 140 71
112 111 11
113 115 122
114 136 14
115 84 68
115 113 122
115 116 63
116 2 131
116 115 63
116 119 84
117 98 104
118 19 40
118 32 109
118 35 36
119 98 44
119 116 84
119 138 79
120 105 39
121 106 41
122 37 342
122 124 79
123 16 116
123 125 156
124 108 77
124 122 79
125 7 66
125 14 93
126 151 30
127 138 102
128 109 6
129 8 87
129 142 61
129 156 54
130 132 17
130 137 9
131 19 47
131 42 72
131 68 70
132 146 218
133 134 35
133 148 107
133 149 39
134 133 35
134 135 36
135 134 36
136 46 290
137 161 219
138 119 79
138 127 102
138 140 56
139 76 19
139 160 8
140 111 71
140 138 56
141 79 75
142 4 77
142 102 66
142 129 61
143 24 33
143 25 144
144 155 9
145 73 14
145 130 64
146 9 14
147 41 112
147 45 69
147 161 267
148 18 45
148 133 107
149 19 145
149 20 35
149 58 44
149 133 39
150 11 19
150 45 41
151 44 65
152 153 20
153 101 38
153 152 20
154 126 4
154 158 41
155 144 9
155 153 9
156 7 21
156 129 54
156 163 47
157 47 189
157 158 244
158 154 41
158 159 90
159 37 17
159 69 229
160 139 8
161 36 229
161 147 267
162 36 8
163 156 47
164 51 108
165 17 142
165 123 95
7
14
24
27
47
54
77
78
89
92
97
103
111
120
123
133
154
